(set-logic QF_S)
(declare-fun var_0xINPUT_26577 () String)
(assert (and (= (len var_0xINPUT_26577) 0) (= (len var_0xINPUT_26577) 0) (not (= var_0xINPUT_26577 "Example:")) (= (len var_0xINPUT_26577) 0) (not (= var_0xINPUT_26577 "4PH2ujcENG"))))
(check-sat var_0xINPUT_26577)